%SETS
JOBS     = 1..5;
MACHINES = 1..5;
SPEED    = 1;

time        = array3d(JOBS,MACHINES,1..SPEED,[2, 1, 6, 2, 1, 6, 4, 1, 4, 1, 9, 12, 4, 11, 1, 4, 1, 3, 1, 1, 5, 1, 1, 1, 2]);
energy      = array3d(JOBS,MACHINES,1..SPEED,[98, 99, 94, 98, 99, 94, 96, 99, 96, 99, 91, 88, 96, 89, 99, 96, 99, 97, 99, 99, 95, 99, 99, 99, 98]);
precedence  = array2d(JOBS,MACHINES,[2, 4, 3, 1, 0, 3, 0, 2, 4, 1, 3, 1, 2, 4, 0, 0, 1, 3, 2, 4, 1, 3, 0, 4, 2]);
releaseDate = array2d(JOBS,MACHINES,[63, 82, 66, 61, 60, 7, 0, 6, 17, 5, 101, 81, 97, 116, 80, 70, 77, 79, 78, 82, 63, 71, 60, 72, 69]);
dueDate     = array2d(JOBS,MACHINES,[66, 83, 82, 63, 61, 17, 5, 7, 22, 6, 116, 97, 101, 130, 81, 77, 78, 82, 79, 83, 69, 72, 63, 73, 71]);